%chk=ACE_ff_NAC.chk
%mem=20GB
%nprocshared = 12
# 6-31g(d) force wb97x

Title Card Required

0 1
 C    2.55800000   -1.74100000    4.00500000
 O    1.36600000   -1.95900000    4.28200000
 C    3.06000000   -0.33900000    3.61300000
 H    2.28600000    0.18500000    3.09300000
 H    3.32800000    0.20400000    4.49500000
 H    3.91600000   -0.43200000    2.97700000
 N    3.59100000   -2.78700000    4.02400000
 H    4.43300000   -2.43000000    3.62000000
 C    3.12800000   -3.94600000    3.24800000
 H    3.88000000   -4.70700000    3.26100000
 C    1.83100000   -4.49600000    3.87000000
 H    2.01800000   -4.79400000    4.88000000
 H    1.07900000   -3.73500000    3.85600000
 C    1.34600000   -5.71000000    3.05700000
 C    1.77900000   -6.99900000    3.39800000
 H    2.44500000   -7.13900000    4.22300000
 C    0.47300000   -5.52700000    1.97600000
 H    0.14400000   -4.54300000    1.71500000
 C    1.33800000   -8.10500000    2.65800000
 H    1.66700000   -9.08900000    2.91800000
 C    0.03200000   -6.63300000    1.23600000
 H   -0.63400000   -6.49300000    0.41100000
 C    0.46400000   -7.92100000    1.57700000
 H    0.12800000   -8.76600000    1.01200000
 C    2.85900000   -3.51600000    1.79400000
 O    3.78000000   -3.57700000    0.93800000
 N    1.52500000   -3.03500000    1.40500000
 H    1.47900000   -2.04400000    1.53000000
 C    1.27800000   -3.36300000   -0.00700000
 H    1.32700000   -4.42300000   -0.14000000
 C   -0.11900000   -2.85800000   -0.41400000
 H   -0.86000000   -3.33000000    0.19700000
 H   -0.16800000   -1.79800000   -0.28000000
 C   -0.37700000   -3.20200000   -1.89300000
 C   -0.97600000   -4.42200000   -2.23400000
 H   -1.25300000   -5.11500000   -1.46800000
 C   -0.01400000   -2.29400000   -2.89700000
 H    0.44300000   -1.36200000   -2.63600000
 C   -1.21100000   -4.73400000   -3.58000000
 H   -1.66800000   -5.66600000   -3.84100000
 C   -0.25000000   -2.60600000   -4.24200000
 H    0.02700000   -1.91300000   -5.00900000
 C   -0.84800000   -3.82700000   -4.58400000
 H   -1.02800000   -4.06500000   -5.61100000
 C    2.34500000   -2.68400000   -0.88500000
 O    3.41700000   -3.28700000   -1.15200000
 N    2.11200000   -1.33200000   -1.41300000
 H    2.48600000   -1.26700000   -2.33800000
 C    2.77300000   -0.34600000   -0.54700000
 H    2.14200000   -0.12500000    0.28800000
 H    3.70200000   -0.74600000   -0.19600000
 H    2.95800000    0.55000000   -1.10100000
